c CNF SAT conversion from Graph Coloring
c Input File name: graph_13_1.txt
c Number of Colors  5
c Conversion type = Standard
c Conversion Code: S--
p cnf 65 248
1 2 3 4 5 0 
6 7 8 9 10 0 
11 12 13 14 15 0 
16 17 18 19 20 0 
21 22 23 24 25 0 
26 27 28 29 30 0 
31 32 33 34 35 0 
36 37 38 39 40 0 
41 42 43 44 45 0 
46 47 48 49 50 0 
51 52 53 54 55 0 
56 57 58 59 60 0 
61 62 63 64 65 0 
-1 -6 0 
-2 -7 0 
-3 -8 0 
-4 -9 0 
-5 -10 0 
-1 -11 0 
-2 -12 0 
-3 -13 0 
-4 -14 0 
-5 -15 0 
-1 -26 0 
-2 -27 0 
-3 -28 0 
-4 -29 0 
-5 -30 0 
-1 -31 0 
-2 -32 0 
-3 -33 0 
-4 -34 0 
-5 -35 0 
-1 -36 0 
-2 -37 0 
-3 -38 0 
-4 -39 0 
-5 -40 0 
-1 -41 0 
-2 -42 0 
-3 -43 0 
-4 -44 0 
-5 -45 0 
-1 -46 0 
-2 -47 0 
-3 -48 0 
-4 -49 0 
-5 -50 0 
-1 -51 0 
-2 -52 0 
-3 -53 0 
-4 -54 0 
-5 -55 0 
-1 -56 0 
-2 -57 0 
-3 -58 0 
-4 -59 0 
-5 -60 0 
-6 -16 0 
-7 -17 0 
-8 -18 0 
-9 -19 0 
-10 -20 0 
-6 -21 0 
-7 -22 0 
-8 -23 0 
-9 -24 0 
-10 -25 0 
-6 -26 0 
-7 -27 0 
-8 -28 0 
-9 -29 0 
-10 -30 0 
-6 -31 0 
-7 -32 0 
-8 -33 0 
-9 -34 0 
-10 -35 0 
-6 -41 0 
-7 -42 0 
-8 -43 0 
-9 -44 0 
-10 -45 0 
-6 -46 0 
-7 -47 0 
-8 -48 0 
-9 -49 0 
-10 -50 0 
-6 -56 0 
-7 -57 0 
-8 -58 0 
-9 -59 0 
-10 -60 0 
-11 -16 0 
-12 -17 0 
-13 -18 0 
-14 -19 0 
-15 -20 0 
-11 -21 0 
-12 -22 0 
-13 -23 0 
-14 -24 0 
-15 -25 0 
-11 -26 0 
-12 -27 0 
-13 -28 0 
-14 -29 0 
-15 -30 0 
-11 -31 0 
-12 -32 0 
-13 -33 0 
-14 -34 0 
-15 -35 0 
-11 -41 0 
-12 -42 0 
-13 -43 0 
-14 -44 0 
-15 -45 0 
-11 -51 0 
-12 -52 0 
-13 -53 0 
-14 -54 0 
-15 -55 0 
-16 -21 0 
-17 -22 0 
-18 -23 0 
-19 -24 0 
-20 -25 0 
-16 -31 0 
-17 -32 0 
-18 -33 0 
-19 -34 0 
-20 -35 0 
-16 -36 0 
-17 -37 0 
-18 -38 0 
-19 -39 0 
-20 -40 0 
-16 -51 0 
-17 -52 0 
-18 -53 0 
-19 -54 0 
-20 -55 0 
-21 -26 0 
-22 -27 0 
-23 -28 0 
-24 -29 0 
-25 -30 0 
-21 -31 0 
-22 -32 0 
-23 -33 0 
-24 -34 0 
-25 -35 0 
-21 -36 0 
-22 -37 0 
-23 -38 0 
-24 -39 0 
-25 -40 0 
-21 -41 0 
-22 -42 0 
-23 -43 0 
-24 -44 0 
-25 -45 0 
-21 -51 0 
-22 -52 0 
-23 -53 0 
-24 -54 0 
-25 -55 0 
-21 -56 0 
-22 -57 0 
-23 -58 0 
-24 -59 0 
-25 -60 0 
-26 -31 0 
-27 -32 0 
-28 -33 0 
-29 -34 0 
-30 -35 0 
-26 -36 0 
-27 -37 0 
-28 -38 0 
-29 -39 0 
-30 -40 0 
-26 -41 0 
-27 -42 0 
-28 -43 0 
-29 -44 0 
-30 -45 0 
-26 -46 0 
-27 -47 0 
-28 -48 0 
-29 -49 0 
-30 -50 0 
-31 -41 0 
-32 -42 0 
-33 -43 0 
-34 -44 0 
-35 -45 0 
-31 -46 0 
-32 -47 0 
-33 -48 0 
-34 -49 0 
-35 -50 0 
-31 -51 0 
-32 -52 0 
-33 -53 0 
-34 -54 0 
-35 -55 0 
-36 -41 0 
-37 -42 0 
-38 -43 0 
-39 -44 0 
-40 -45 0 
-36 -46 0 
-37 -47 0 
-38 -48 0 
-39 -49 0 
-40 -50 0 
-36 -51 0 
-37 -52 0 
-38 -53 0 
-39 -54 0 
-40 -55 0 
-36 -56 0 
-37 -57 0 
-38 -58 0 
-39 -59 0 
-40 -60 0 
-41 -46 0 
-42 -47 0 
-43 -48 0 
-44 -49 0 
-45 -50 0 
-46 -51 0 
-47 -52 0 
-48 -53 0 
-49 -54 0 
-50 -55 0 
-46 -56 0 
-47 -57 0 
-48 -58 0 
-49 -59 0 
-50 -60 0 
-51 -56 0 
-52 -57 0 
-53 -58 0 
-54 -59 0 
-55 -60 0 
